
Gurobi 7.0.1 (win64) logging started 04/03/17 16:04:51

Changed value of parameter LogFile to outputlogs\log_LPIP_prov_code_7_8_9_1491249891.log
   Prev: gurobi.log  Default: 
Optimize a model with 5920 rows, 297621 columns and 595676 nonzeros
Variable types: 0 continuous, 297621 integer (297621 binary)
Coefficient statistics:
  Matrix range     [1e+00, 3e+03]
  Objective range  [6e+00, 2e+07]
  Bounds range     [1e+00, 1e+00]
  RHS range        [1e+00, 3e+01]
Presolve removed 193 rows and 0 columns
Presolve time: 0.83s
Presolved: 5727 rows, 297621 columns, 595483 nonzeros

MIP start did not produce a new incumbent solution
MIP start violates constraint R2526 by 154.000000000

Variable types: 0 continuous, 297621 integer (297621 binary)

Root simplex log...

Iteration    Objective       Primal Inf.    Dual Inf.      Time
       0    0.0000000e+00   5.050000e+03   0.000000e+00     89s
    5160    4.9224857e+07   0.000000e+00   0.000000e+00     89s

Root relaxation: objective 4.922486e+07, 5160 iterations, 0.12 seconds

    Nodes    |    Current Node    |     Objective Bounds      |     Work
 Expl Unexpl |  Obj  Depth IntInf | Incumbent    BestBd   Gap | It/Node Time

     0     0 4.9225e+07    0   31          - 4.9225e+07      -     -   89s
Another try with MIP start
     0     0 4.9225e+07    0   31          - 4.9225e+07      -     -  112s
     0     0 4.9225e+07    0   31          - 4.9225e+07      -     -  134s
     0     0 4.9225e+07    0   31          - 4.9225e+07      -     -  157s
     0     0 4.9225e+07    0   31          - 4.9225e+07      -     -  182s
     0     0 4.9225e+07    0   31          - 4.9225e+07      -     -  209s
     0     0 4.9225e+07    0   31          - 4.9225e+07      -     -  233s
     0     0 4.9225e+07    0   31          - 4.9225e+07      -     -  258s
     0     0 4.9225e+07    0   31          - 4.9225e+07      -     -  282s
H    0     0                    1.345336e+08 4.9225e+07  63.4%     -  308s
     0     0 4.9225e+07    0   31 1.3453e+08 4.9225e+07  63.4%     -  330s
     0     0 4.9225e+07    0   31 1.3453e+08 4.9225e+07  63.4%     -  352s
     0     0 4.9225e+07    0   31 1.3453e+08 4.9225e+07  63.4%     -  373s
     0     0 4.9225e+07    0   31 1.3453e+08 4.9225e+07  63.4%     -  395s
     0     0 4.9225e+07    0   31 1.3453e+08 4.9225e+07  63.4%     -  416s
     0     0 4.9888e+07    0  149 1.3453e+08 4.9888e+07  62.9%     -  417s
     0     0 4.9888e+07    0  149 1.3453e+08 4.9888e+07  62.9%     -  440s
     0     0 4.9888e+07    0  149 1.3453e+08 4.9888e+07  62.9%     -  462s
     0     0 4.9888e+07    0  149 1.3453e+08 4.9888e+07  62.9%     -  484s
H    0     0                    5.085455e+07 4.9888e+07  1.90%     -  505s
     0     0 5.0032e+07    0  482 5.0855e+07 5.0032e+07  1.62%     -  506s
     0     0 5.0294e+07    0 1210 5.0855e+07 5.0294e+07  1.10%     -  515s
     0     0 5.0319e+07    0 1024 5.0855e+07 5.0319e+07  1.05%     -  517s
     0     0 5.0449e+07    0 1044 5.0855e+07 5.0449e+07  0.80%     -  519s
     0     0 5.0454e+07    0 1011 5.0855e+07 5.0454e+07  0.79%     -  519s
     0     0 5.0496e+07    0  258 5.0855e+07 5.0496e+07  0.71%     -  520s
     0     0 5.0497e+07    0  270 5.0855e+07 5.0497e+07  0.70%     -  521s
     0     0 5.0520e+07    0  299 5.0855e+07 5.0520e+07  0.66%     -  521s
     0     0 5.0520e+07    0  293 5.0855e+07 5.0520e+07  0.66%     -  526s
     0     0 5.0520e+07    0  293 5.0855e+07 5.0520e+07  0.66%     -  551s
     0     0 5.0520e+07    0  293 5.0855e+07 5.0520e+07  0.66%     -  574s
     0     0 5.0520e+07    0  293 5.0855e+07 5.0520e+07  0.66%     -  598s
     0     0 5.0520e+07    0  293 5.0855e+07 5.0520e+07  0.66%     -  622s
     0     0 5.0520e+07    0  293 5.0855e+07 5.0520e+07  0.66%     -  645s
     0     0 5.0520e+07    0  226 5.0855e+07 5.0520e+07  0.66%     -  668s
     0     0 5.0520e+07    0  226 5.0855e+07 5.0520e+07  0.66%     -  693s
     0     0 5.0520e+07    0  226 5.0855e+07 5.0520e+07  0.66%     -  717s
     0     0 5.0520e+07    0  226 5.0855e+07 5.0520e+07  0.66%     -  741s
     0     0 5.0520e+07    0  226 5.0855e+07 5.0520e+07  0.66%     -  764s
     0     0 5.0520e+07    0  226 5.0855e+07 5.0520e+07  0.66%     -  788s
     0     0 5.0520e+07    0  434 5.0855e+07 5.0520e+07  0.66%     -  791s
     0     0 5.0520e+07    0  434 5.0855e+07 5.0520e+07  0.66%     -  816s
H    0     0                    5.064354e+07 5.0520e+07  0.24%     -  840s
     0     0 5.0520e+07    0  232 5.0644e+07 5.0520e+07  0.24%     -  841s
     0     0 5.0522e+07    0  268 5.0644e+07 5.0522e+07  0.24%     -  843s
     0     0 5.0529e+07    0  462 5.0644e+07 5.0529e+07  0.23%     -  846s
     0     0 5.0539e+07    0  753 5.0644e+07 5.0539e+07  0.21%     -  850s
     0     0 5.0540e+07    0  750 5.0644e+07 5.0540e+07  0.21%     -  852s
     0     0 5.0542e+07    0  749 5.0644e+07 5.0542e+07  0.20%     -  863s
     0     0 5.0542e+07    0  751 5.0644e+07 5.0542e+07  0.20%     -  865s
     0     0 5.0544e+07    0  770 5.0644e+07 5.0544e+07  0.20%     -  876s
     0     0 5.0544e+07    0  771 5.0644e+07 5.0544e+07  0.20%     -  877s
     0     0 5.0544e+07    0  349 5.0644e+07 5.0544e+07  0.20%     -  889s
     0     0 5.0544e+07    0  225 5.0644e+07 5.0544e+07  0.20%     -  903s
     0     0 5.0544e+07    0  225 5.0644e+07 5.0544e+07  0.20%     -  928s
     0     0 5.0544e+07    0  225 5.0644e+07 5.0544e+07  0.20%     -  953s
     0     0 5.0544e+07    0  225 5.0644e+07 5.0544e+07  0.20%     -  979s
     0     0 5.0544e+07    0  225 5.0644e+07 5.0544e+07  0.20%     - 1003s
     0     0 5.0544e+07    0  225 5.0644e+07 5.0544e+07  0.20%     - 1027s
     0     0 5.0544e+07    0  125 5.0644e+07 5.0544e+07  0.20%     - 1028s
     0     0 5.0544e+07    0  133 5.0644e+07 5.0544e+07  0.20%     - 1030s
     0     0 5.0544e+07    0  333 5.0644e+07 5.0544e+07  0.20%     - 1032s
     0     0 5.0544e+07    0  325 5.0644e+07 5.0544e+07  0.20%     - 1032s
     0     0 5.0544e+07    0  340 5.0644e+07 5.0544e+07  0.20%     - 1034s
     0     0 5.0544e+07    0  339 5.0644e+07 5.0544e+07  0.20%     - 1035s
     0     0 5.0544e+07    0  464 5.0644e+07 5.0544e+07  0.20%     - 1037s
     0     0 5.0544e+07    0  503 5.0644e+07 5.0544e+07  0.20%     - 1039s
     0     0 5.0544e+07    0  512 5.0644e+07 5.0544e+07  0.20%     - 1042s
     0     0 5.0544e+07    0  514 5.0644e+07 5.0544e+07  0.20%     - 1042s
     0     0 5.0544e+07    0  515 5.0644e+07 5.0544e+07  0.20%     - 1045s
     0     0 5.0544e+07    0  515 5.0644e+07 5.0544e+07  0.20%     - 1070s
     0     0 5.0544e+07    0  515 5.0644e+07 5.0544e+07  0.20%     - 1093s
     0     0 5.0544e+07    0  515 5.0644e+07 5.0544e+07  0.20%     - 1118s
     0     0 5.0544e+07    0  515 5.0644e+07 5.0544e+07  0.20%     - 1142s
     0     0 5.0544e+07    0  515 5.0644e+07 5.0544e+07  0.20%     - 1166s
     0     0 5.0544e+07    0  597 5.0644e+07 5.0544e+07  0.20%     - 1167s
     0     0 5.0544e+07    0  604 5.0644e+07 5.0544e+07  0.20%     - 1171s
     0     0 5.0544e+07    0  608 5.0644e+07 5.0544e+07  0.20%     - 1172s
     0     0 5.0544e+07    0  621 5.0644e+07 5.0544e+07  0.20%     - 1176s
     0     0 5.0544e+07    0  625 5.0644e+07 5.0544e+07  0.20%     - 1177s
     0     0 5.0545e+07    0  617 5.0644e+07 5.0545e+07  0.20%     - 1181s
     0     0 5.0545e+07    0  620 5.0644e+07 5.0545e+07  0.20%     - 1182s
     0     0 5.0545e+07    0  626 5.0644e+07 5.0545e+07  0.19%     - 1186s
     0     0 5.0545e+07    0  629 5.0644e+07 5.0545e+07  0.19%     - 1188s
     0     0 5.0545e+07    0  633 5.0644e+07 5.0545e+07  0.19%     - 1192s
     0     0 5.0545e+07    0  637 5.0644e+07 5.0545e+07  0.19%     - 1192s
     0     0 5.0545e+07    0  644 5.0644e+07 5.0545e+07  0.19%     - 1194s
     0     0 5.0545e+07    0  640 5.0644e+07 5.0545e+07  0.19%     - 1194s
     0     0 5.0546e+07    0  646 5.0644e+07 5.0546e+07  0.19%     - 1195s
     0     0 5.0546e+07    0  650 5.0644e+07 5.0546e+07  0.19%     - 1196s
     0     0 5.0546e+07    0  650 5.0644e+07 5.0546e+07  0.19%     - 1197s
     0     0 5.0547e+07    0  642 5.0644e+07 5.0547e+07  0.19%     - 1199s
     0     0 5.0548e+07    0  407 5.0644e+07 5.0548e+07  0.19%     - 1204s
     0     0 5.0548e+07    0  409 5.0644e+07 5.0548e+07  0.19%     - 1206s
     0     0 5.0549e+07    0  398 5.0644e+07 5.0549e+07  0.19%     - 1207s
     0     0 5.0549e+07    0  398 5.0644e+07 5.0549e+07  0.19%     - 1208s
     0     0 5.0549e+07    0  398 5.0644e+07 5.0549e+07  0.19%     - 1209s
     0     0 5.0549e+07    0  404 5.0644e+07 5.0549e+07  0.19%     - 1209s
     0     0 5.0549e+07    0  413 5.0644e+07 5.0549e+07  0.19%     - 1210s
     0     0 5.0549e+07    0  415 5.0644e+07 5.0549e+07  0.19%     - 1212s
     0     0 5.0550e+07    0  415 5.0644e+07 5.0550e+07  0.19%     - 1213s
     0     0 5.0550e+07    0  419 5.0644e+07 5.0550e+07  0.19%     - 1213s
     0     0 5.0550e+07    0  417 5.0644e+07 5.0550e+07  0.18%     - 1215s
     0     0 5.0550e+07    0  421 5.0644e+07 5.0550e+07  0.18%     - 1215s
     0     0 5.0550e+07    0  427 5.0644e+07 5.0550e+07  0.18%     - 1216s
     0     0 5.0550e+07    0  428 5.0644e+07 5.0550e+07  0.18%     - 1217s
     0     0 5.0550e+07    0  424 5.0644e+07 5.0550e+07  0.18%     - 1218s
     0     0 5.0550e+07    0  425 5.0644e+07 5.0550e+07  0.18%     - 1219s
     0     0 5.0551e+07    0  580 5.0644e+07 5.0551e+07  0.18%     - 1219s
     0     0 5.0551e+07    0  586 5.0644e+07 5.0551e+07  0.18%     - 1220s
     0     0 5.0551e+07    0  581 5.0644e+07 5.0551e+07  0.18%     - 1221s
     0     0 5.0551e+07    0  581 5.0644e+07 5.0551e+07  0.18%     - 1255s
     0     0 5.0551e+07    0  581 5.0644e+07 5.0551e+07  0.18%     - 1286s
     0     0 5.0551e+07    0  581 5.0644e+07 5.0551e+07  0.18%     - 1312s
     0     0 5.0551e+07    0  581 5.0644e+07 5.0551e+07  0.18%     - 1340s
     0     0 5.0551e+07    0  581 5.0644e+07 5.0551e+07  0.18%     - 1366s
     0     0 5.0551e+07    0  581 5.0644e+07 5.0551e+07  0.18%     - 1393s
     0     0 5.0551e+07    0  581 5.0644e+07 5.0551e+07  0.18%     - 1418s
H    0     0                    5.063534e+07 5.0551e+07  0.17%     - 1441s
     0     0 5.0551e+07    0  225 5.0635e+07 5.0551e+07  0.17%     - 1457s
     0     0 5.0551e+07    0  225 5.0635e+07 5.0551e+07  0.17%     - 1482s
     0     0 5.0551e+07    0  225 5.0635e+07 5.0551e+07  0.17%     - 1506s
     0     0 5.0551e+07    0  225 5.0635e+07 5.0551e+07  0.17%     - 1529s
     0     0 5.0551e+07    0  225 5.0635e+07 5.0551e+07  0.17%     - 1552s
     0     0 5.0551e+07    0  225 5.0635e+07 5.0551e+07  0.17%     - 1576s
     0     0 5.0551e+07    0  127 5.0635e+07 5.0551e+07  0.17%     - 1578s
     0     0 5.0551e+07    0  127 5.0635e+07 5.0551e+07  0.17%     - 1602s
     0     0 5.0551e+07    0  127 5.0635e+07 5.0551e+07  0.17%     - 1626s
     0     0 5.0551e+07    0  127 5.0635e+07 5.0551e+07  0.17%     - 1650s
     0     0 5.0551e+07    0  127 5.0635e+07 5.0551e+07  0.17%     - 1673s
     0     0 5.0551e+07    0  127 5.0635e+07 5.0551e+07  0.17%     - 1697s
     0     0 5.0551e+07    0  141 5.0635e+07 5.0551e+07  0.17%     - 1697s
     0     0 5.0551e+07    0  309 5.0635e+07 5.0551e+07  0.17%     - 1698s
     0     0 5.0551e+07    0  313 5.0635e+07 5.0551e+07  0.17%     - 1700s
     0     0 5.0551e+07    0  311 5.0635e+07 5.0551e+07  0.17%     - 1701s
     0     0 5.0551e+07    0  319 5.0635e+07 5.0551e+07  0.17%     - 1702s
     0     0 5.0551e+07    0  331 5.0635e+07 5.0551e+07  0.17%     - 1704s
     0     0 5.0551e+07    0  335 5.0635e+07 5.0551e+07  0.17%     - 1704s
     0     0 5.0551e+07    0  430 5.0635e+07 5.0551e+07  0.17%     - 1706s
     0     0 5.0551e+07    0  433 5.0635e+07 5.0551e+07  0.17%     - 1707s
     0     0 5.0551e+07    0  431 5.0635e+07 5.0551e+07  0.17%     - 1709s
     0     0 5.0551e+07    0  432 5.0635e+07 5.0551e+07  0.17%     - 1710s
     0     0 5.0551e+07    0  461 5.0635e+07 5.0551e+07  0.17%     - 1712s
     0     0 5.0551e+07    0  465 5.0635e+07 5.0551e+07  0.17%     - 1712s
     0     0 5.0551e+07    0  472 5.0635e+07 5.0551e+07  0.17%     - 1714s
     0     0 5.0551e+07    0  628 5.0635e+07 5.0551e+07  0.17%     - 1715s
     0     0 5.0551e+07    0  643 5.0635e+07 5.0551e+07  0.17%     - 1718s
     0     0 5.0551e+07    0  650 5.0635e+07 5.0551e+07  0.17%     - 1718s
     0     0 5.0551e+07    0  656 5.0635e+07 5.0551e+07  0.17%     - 1721s
     0     0 5.0551e+07    0  663 5.0635e+07 5.0551e+07  0.17%     - 1722s
     0     0 5.0551e+07    0  655 5.0635e+07 5.0551e+07  0.17%     - 1724s
     0     0 5.0551e+07    0  655 5.0635e+07 5.0551e+07  0.17%     - 1749s
     0     0 5.0551e+07    0  655 5.0635e+07 5.0551e+07  0.17%     - 1774s
     0     0 5.0551e+07    0  655 5.0635e+07 5.0551e+07  0.17%     - 1797s
     0     0 5.0551e+07    0  655 5.0635e+07 5.0551e+07  0.17%     - 1821s
     0     0 5.0551e+07    0  655 5.0635e+07 5.0551e+07  0.17%     - 1845s
     0     0 5.0551e+07    0  643 5.0635e+07 5.0551e+07  0.17%     - 1845s
     0     0 5.0551e+07    0  653 5.0635e+07 5.0551e+07  0.17%     - 1848s
     0     0 5.0551e+07    0  647 5.0635e+07 5.0551e+07  0.17%     - 1849s
     0     0 5.0551e+07    0  657 5.0635e+07 5.0551e+07  0.17%     - 1852s
     0     0 5.0551e+07    0  651 5.0635e+07 5.0551e+07  0.17%     - 1853s
     0     0 5.0551e+07    0  569 5.0635e+07 5.0551e+07  0.17%     - 1856s
     0     0 5.0551e+07    0  557 5.0635e+07 5.0551e+07  0.17%     - 1857s
     0     0 5.0551e+07    0  558 5.0635e+07 5.0551e+07  0.17%     - 1859s
     0     0 5.0551e+07    0  558 5.0635e+07 5.0551e+07  0.17%     - 1860s
     0     0 5.0551e+07    0  572 5.0635e+07 5.0551e+07  0.17%     - 1863s
     0     0 5.0551e+07    0  579 5.0635e+07 5.0551e+07  0.17%     - 1863s
     0     0 5.0551e+07    0  420 5.0635e+07 5.0551e+07  0.17%     - 1866s
     0     0 5.0551e+07    0  587 5.0635e+07 5.0551e+07  0.17%     - 1867s
     0     0 5.0551e+07    0  572 5.0635e+07 5.0551e+07  0.17%     - 1869s
     0     0 5.0551e+07    0  574 5.0635e+07 5.0551e+07  0.17%     - 1870s
     0     0 5.0551e+07    0  571 5.0635e+07 5.0551e+07  0.17%     - 1872s
     0     0 5.0551e+07    0  577 5.0635e+07 5.0551e+07  0.17%     - 1873s
     0     0 5.0551e+07    0  584 5.0635e+07 5.0551e+07  0.17%     - 1875s
     0     0 5.0551e+07    0  579 5.0635e+07 5.0551e+07  0.17%     - 1876s
     0     0 5.0551e+07    0  579 5.0635e+07 5.0551e+07  0.17%     - 1879s
     0     0 5.0551e+07    0  579 5.0635e+07 5.0551e+07  0.17%     - 1908s
H    0     0                    5.062743e+07 5.0551e+07  0.15%     - 1934s
     0     2 5.0551e+07    0  579 5.0627e+07 5.0551e+07  0.15%     - 1936s
     3     6 5.0574e+07    2  527 5.0627e+07 5.0554e+07  0.14%   537 1942s
     9     7 5.0612e+07    4   14 5.0627e+07 5.0554e+07  0.14%   423 1969s
    11     7 5.0612e+07    5  126 5.0627e+07 5.0554e+07  0.14%   368 1971s
    28    23 5.0613e+07   12   14 5.0627e+07 5.0554e+07  0.14%   150 1996s
    60    54 5.0614e+07   27   14 5.0627e+07 5.0554e+07  0.14%  74.1 2021s
    90    86 5.0614e+07   42   14 5.0627e+07 5.0554e+07  0.14%  50.3 2046s
   117   111 5.0614e+07   55   14 5.0627e+07 5.0554e+07  0.14%  40.5 2071s
   146   141 5.0614e+07   67   14 5.0627e+07 5.0554e+07  0.14%  33.0 2096s
H  174   162                    5.061579e+07 5.0554e+07  0.12%  28.3 2122s
H  179    91                    5.059634e+07 5.0554e+07  0.08%  27.6 2145s
   210   108     cutoff    4      5.0596e+07 5.0592e+07  0.01%  43.3 2174s

Cutting planes:
  Gomory: 12
  Cover: 5
  MIR: 74
  StrongCG: 1
  Zero half: 15
  Lazy constraints: 1764

Explored 221 nodes (121011 simplex iterations) in 2174.49 seconds
Thread count was 4 (of 4 available processors)

Solution count 7: 5.05963e+07 5.06158e+07 5.06274e+07 ... 1.34534e+08
Pool objective bound 5.05918e+07

Optimal solution found (tolerance 1.00e-04)
Best objective 5.059634183966e+07, best bound 5.059183225173e+07, gap 0.0089%
